************************************************************************
file with basedata            : md368_.bas
initial value random generator: 1060857520
************************************************************************
projects                      :  1
jobs (incl. supersource/sink ):  22
horizon                       :  157
RESOURCES
  - renewable                 :  2   R
  - nonrenewable              :  2   N
  - doubly constrained        :  0   D
************************************************************************
PROJECT INFORMATION:
pronr.  #jobs rel.date duedate tardcost  MPM-Time
    1     20      0       16        4       16
************************************************************************
PRECEDENCE RELATIONS:
jobnr.    #modes  #successors   successors
   1        1          3           2   3   4
   2        3          3           8  14  17
   3        3          3          11  12  15
   4        3          3           5   7  18
   5        3          3           6   9  13
   6        3          2          14  19
   7        3          2          14  20
   8        3          2          10  13
   9        3          3          15  17  19
  10        3          2          12  15
  11        3          3          13  17  18
  12        3          1          16
  13        3          1          21
  14        3          1          21
  15        3          1          20
  16        3          2          18  19
  17        3          1          21
  18        3          1          20
  19        3          1          22
  20        3          1          22
  21        3          1          22
  22        1          0        
************************************************************************
REQUESTS/DURATIONS:
jobnr. mode duration  R 1  R 2  N 1  N 2
------------------------------------------------------------------------
  1      1     0       0    0    0    0
  2      1     5      10    4    8    7
         2     6      10    4    6    4
         3    10       9    4    3    2
  3      1     3       3    3    8    8
         2     4       3    3    3    8
         3     5       3    3    1    7
  4      1     2       7    9    9    6
         2     5       6    6    6    5
         3     8       4    3    2    5
  5      1     4       7    7    6    6
         2     5       7    6    6    4
         3     5       7    6    4    6
  6      1     3      10    8    9    5
         2     4      10    7    8    4
         3    10      10    5    8    4
  7      1     1       7    5    7    5
         2     1       7    5    6    6
         3     7       6    1    4    3
  8      1     2       4    4    4    8
         2     3       4    3    3    8
         3    10       1    3    2    7
  9      1     2       5    6    8    6
         2     2       4    6    9    6
         3     3       2    5    6    6
 10      1     2       7    3    3    7
         2     6       5    3    2    4
         3    10       4    2    1    1
 11      1     5       6    6    9    9
         2     6       5    5    7    6
         3     8       5    5    3    4
 12      1     1       6    4    2    7
         2     4       4    3    2    5
         3     5       4    3    1    5
 13      1     1       6    7    7    8
         2     5       5    4    7    6
         3     9       4    4    3    4
 14      1     4       7    7    5    4
         2     7       7    6    5    4
         3    10       4    6    3    4
 15      1     4      10    6    3    2
         2    10       4    4    3    2
         3    10       6    6    1    2
 16      1     1       8    3   10    9
         2     8       8    3    6    8
         3    10       8    3    5    7
 17      1     1       9    8    5    2
         2     8       7    8    4    2
         3     9       7    7    2    2
 18      1     3      10   10    8    7
         2     5       7    8    6    7
         3     5       8    8    6    5
 19      1     1       8    4    2    8
         2     2       8    4    2    5
         3     8       6    4    1    4
 20      1     2       6   10    8    8
         2     4       5    9    7    6
         3     5       3    9    6    4
 21      1     1       2    7    7    7
         2     5       2    6    6    3
         3    10       2    6    4    3
 22      1     0       0    0    0    0
************************************************************************
RESOURCEAVAILABILITIES:
  R 1  R 2  N 1  N 2
   35   27   98  107
************************************************************************
MAXIMAL LAGS:
from  to  type  delay
    1   22   ES      0
    1    2   ES      0
    2   22   ES      0
    1    3   ES      0
    3   22   ES      0
    1    4   ES      0
    4   22   ES      0
    1    5   ES      0
    5   22   ES      0
    1    6   ES      0
    6   22   ES      0
    1    7   ES      0
    7   22   ES      0
    1    8   ES      0
    8   22   ES      0
    1    9   ES      0
    9   22   ES      0
    1   10   ES      0
   10   22   ES      0
    1   11   ES      0
   11   22   ES      0
    1   12   ES      0
   12   22   ES      0
    1   13   ES      0
   13   22   ES      0
    1   14   ES      0
   14   22   ES      0
    1   15   ES      0
   15   22   ES      0
    1   16   ES      0
   16   22   ES      0
    1   17   ES      0
   17   22   ES      0
    1   18   ES      0
   18   22   ES      0
    1   19   ES      0
   19   22   ES      0
    1   20   ES      0
   20   22   ES      0
    1   21   ES      0
   21   22   ES      0
    1   22   ES      0
    2    8   SS      2
    2    8   SE     11
    2    8   ES     -6
    2    8   EE     11
    2   14   SS     -9
    2   14   SE      3
    2   14   ES     10
    2   14   EE     -3
    2   17   SS      9
    2   17   SE     11
    2   17   ES      9
    2   17   EE     -8
    3   11   SS      2
    3   11   SE     11
    3   11   ES     -9
    3   11   EE      4
    3   12   SS     -5
    3   12   SE     -8
    3   12   ES     -8
    3   12   EE      9
    3   15   SS     -4
    3   15   SE    -12
    3   15   ES     -7
    3   15   EE     -6
    4    5   SS      7
    4    5   SE     -6
    5    4   SE      0
    4    5   ES      0
    4    5   EE      9
    4    7   SS     -8
    4    7   SE      3
    4    7   ES      0
    4    7   EE     -9
    4   18   SS      2
    4   18   SE      1
    4   18   ES     -4
    4   18   EE     10
    5    6   SS    -12
    5    6   SE     12
    5    6   ES      9
    5    6   EE     -4
    5    9   SS    -11
    5    9   SE     -4
    5    9   ES     11
    5    9   EE      0
    5   13   SS     -2
    5   13   SE      9
    5   13   ES     -1
    5   13   EE     -9
    6   14   SS    -10
    6   14   SE     -7
    6   14   ES      5
    6   14   EE      0
    6   19   SS     -5
    6   19   SE      4
    6   19   ES    -10
    6   19   EE     -9
    7   14   SS    -12
    7   14   SE     -1
    7   14   ES    -12
    7   14   EE     -8
    7   20   SS     10
    7   20   SE     -8
    7   20   ES      5
    7   20   EE     10
    8   10   SS      7
    8   10   SE     -7
    8   10   ES    -11
    8   10   EE      3
    8   13   SS     12
    8   13   SE      8
    8   13   ES     -3
    8   13   EE      9
    9   15   SS      8
    9   15   SE     -2
    9   15   ES      6
    9   15   EE     -1
    9   17   SS     -7
    9   17   SE      4
    9   17   ES     10
    9   17   EE     -8
    9   19   SS      2
    9   19   SE     12
    9   19   ES      1
    9   19   EE      3
   10   12   SS      3
   10   12   SE     -4
   10   12   ES     -7
   10   12   EE     -6
   10   15   SS      7
   10   15   SE     -6
   10   15   ES     -2
   10   15   EE     10
   11   13   SS     -4
   11   13   SE     -6
   11   13   ES     12
   11   13   EE     -5
   11   17   SS      8
   11   17   SE      2
   11   17   ES     -6
   11   17   EE     11
   11   18   SS     -8
   11   18   SE     10
   11   18   ES      2
   11   18   EE      4
   12   16   SS     -6
   12   16   SE      7
   12   16   ES      1
   12   16   EE     12
   13   21   SS     11
   13   21   SE      6
   13   21   ES     -7
   13   21   EE    -10
   14   21   SS     -1
   14   21   SE     -9
   14   21   ES    -11
   14   21   EE    -12
   15   20   SS     -8
   15   20   SE      0
   15   20   ES    -12
   15   20   EE      3
   16   18   SS      2
   16   18   SE     12
   16   18   ES     -7
   16   18   EE    -10
   16   19   SS     -4
   16   19   SE     -6
   16   19   ES      8
   16   19   EE      8
   17   21   SS     -4
   17   21   SE     10
   17   21   ES      4
   17   21   EE      0
   18   20   SS      6
   18   20   SE      9
   18   20   ES      0
   18   20   EE     -2
************************************************************************
